49 49
5 25
26 1
39 10
34 13
37 7
22 3
45 15
12 16
30 24
40 20
20 3
9 5
2 4
44 18
43 24
8 17
11 23
6 14
15 22
47 12
48 8
36 8
3 12
13 5
42 10
27 6
10 1
49 16
31 19
7 9
25 13
16 11
28 21
17 18
33 19
4 4
29 7
18 17
35 2
38 20
14 2
32 22
41 11
21 9
46 14
19 23
24 6
23 21
1 15
